50

100 15 303
99 40 417
98 30 314
96 44 435
94 12 323
92 8 291
90 27 371
89 16 406
89 26 365
89 1 367
87 11 265
86 20 293
81 24 420
80 17 401
78 37 265
77 26 308
74 10 391
74 35 319
72 11 405
72 5 373
63 24 248
62 17 355
60 8 330
60 6 415
55 18 437
55 8 305
54 5 324
53 21 323
50 17 274
50 1 440
46 11 411
46 4 382
45 6 352
42 5 448
42 6 180
41 8 435
38 9 128
35 3 189
34 8 424
33 11 252
33 1 145
32 15 445
28 9 225
28 9 430
27 5 387
26 10 170
23 6 287
21 11 134
21 4 228
20 5 385
